set Nv:= 0 1;
set Lv:=
0 1
;
set Ns:=0 1 2 3 4 5 ;
set Nss[0]:=1 2 ;
set Nss[1]:=0 3 4 ;
set Nss[2]:=0 4 ;
set Nss[3]:=1 4 5 ;
set Nss[4]:=1 2 3 5 ;
set Nss[5]:=3 4 ;
set Nss1[0]:=1 2 ;
set Nss1[1]:=0 3 4 ;
set Nss1[2]:=0 4 ;
set Nss1[3]:=1 4 5 ;
set Nss1[4]:=1 2 3 5 ;
set Nss1[5]:=3 4 ;
set Ls:=
0 1
0 2
1 3
1 4
2 4
3 4
3 5
4 5
1 0
2 0
3 1
4 1
4 2
4 3
5 3
5 4
;
set X[0]:=0 2 3 4 5 ;
set X[1]:=0 2 3 4 5 ;
set SlotIndex:=0 1 2 3 4 5 ;
set MD:=1,2,3,4,6,8;
set Slot[0,1,0,1]:=0 1 2 ;
set Slot[0,1,0,2]:=0 1 ;
set Slot[0,1,0,3]:=0 1 ;
set Slot[0,1,0,4]:=0 1 ;
set Slot[0,1,0,6]:=0 1 ;
set Slot[0,1,0,8]:=0 1 ;
set Slot[0,1,1,1]:=1 2 3 ;
set Slot[0,1,1,2]:=1 2 ;
set Slot[0,1,1,3]:=1 2 ;
set Slot[0,1,1,4]:=1 2 ;
set Slot[0,1,1,6]:=1 2 ;
set Slot[0,1,1,8]:=1 2 ;
set Slot[0,1,2,1]:=2 3 4 ;
set Slot[0,1,2,2]:=2 3 ;
set Slot[0,1,2,3]:=2 3 ;
set Slot[0,1,2,4]:=2 3 ;
set Slot[0,1,2,6]:=2 3 ;
set Slot[0,1,2,8]:=2 3 ;
set Slot[0,1,3,1]:=3 4 5 ;
set Slot[0,1,3,2]:=3 4 ;
set Slot[0,1,3,3]:=3 4 ;
set Slot[0,1,3,4]:=3 4 ;
set Slot[0,1,3,6]:=3 4 ;
set Slot[0,1,3,8]:=3 4 ;
set Slot[0,1,4,1]:=4 5 ;
set Slot[0,1,4,2]:=4 5 ;
set Slot[0,1,4,3]:=4 5 ;
set Slot[0,1,4,4]:=4 5 ;
set Slot[0,1,4,6]:=4 5 ;
set Slot[0,1,4,8]:=4 5 ;
set Slot[0,1,5,1]:=5 ;
set Slot[0,1,5,2]:=5 ;
set Slot[0,1,5,3]:=5 ;
set Slot[0,1,5,4]:=5 ;
set Slot[0,1,5,6]:=5 ;
set Slot[0,1,5,8]:=5 ;
set Slot1[0,1,0,1]:=0 ;
set Slot1[0,1,0,2]:=0 ;
set Slot1[0,1,0,3]:=0 ;
set Slot1[0,1,0,4]:=0 ;
set Slot1[0,1,0,6]:=0 ;
set Slot1[0,1,0,8]:=0 ;
set Slot1[0,1,1,1]:=1 0 ;
set Slot1[0,1,1,2]:=1 0 ;
set Slot1[0,1,1,3]:=1 0 ;
set Slot1[0,1,1,4]:=1 0 ;
set Slot1[0,1,1,6]:=1 0 ;
set Slot1[0,1,1,8]:=1 0 ;
set Slot1[0,1,2,1]:=2 1 0 ;
set Slot1[0,1,2,2]:=2 1 ;
set Slot1[0,1,2,3]:=2 1 ;
set Slot1[0,1,2,4]:=2 1 ;
set Slot1[0,1,2,6]:=2 1 ;
set Slot1[0,1,2,8]:=2 1 ;
set Slot1[0,1,3,1]:=3 2 1 ;
set Slot1[0,1,3,2]:=3 2 ;
set Slot1[0,1,3,3]:=3 2 ;
set Slot1[0,1,3,4]:=3 2 ;
set Slot1[0,1,3,6]:=3 2 ;
set Slot1[0,1,3,8]:=3 2 ;
set Slot1[0,1,4,1]:=4 3 2 ;
set Slot1[0,1,4,2]:=4 3 ;
set Slot1[0,1,4,3]:=4 3 ;
set Slot1[0,1,4,4]:=4 3 ;
set Slot1[0,1,4,6]:=4 3 ;
set Slot1[0,1,4,8]:=4 3 ;
set Slot1[0,1,5,1]:=5 4 3 ;
set Slot1[0,1,5,2]:=5 4 ;
set Slot1[0,1,5,3]:=5 4 ;
set Slot1[0,1,5,4]:=5 4 ;
set Slot1[0,1,5,6]:=5 4 ;
set Slot1[0,1,5,8]:=5 4 ;
param c:=
0 70.0
1 40.0
2 50.0
3 90.0
4 80.0
5 60.0
;
param ac:=
0 0 0.4463378027139697
0 2 0.42061404869309627
0 3 0.24067189537163358
0 4 0.16510444576852024
0 5 0.3787413098725665
1 0 0.4459672331868205
1 2 0.42024347916594706
1 3 0.24030132584448438
1 4 0.16473387624137104
1 5 0.3783707403454173
;
param cs:=
0 1 90.0
0 2 100.0
1 3 150.0
1 4 240.0
2 4 50.0
3 4 180.0
3 5 54.0
4 5 20.0
1 0 90.0
2 0 100.0
3 1 150.0
4 1 240.0
4 2 50.0
4 3 180.0
5 3 54.0
5 4 20.0
;
param p:=
0 46.374358
1 41.624096
;
param pbw:=
0 1 21.5235546
;
param F:=5;
param U:=
0 70.0
1 40.0
2 50.0
3 90.0
4 80.0
5 60.0
;
param USlot:=
0 1 0 1
0 1 1 1
0 1 2 1
0 1 3 1
0 1 4 1
0 1 5 1
0 2 0 1
0 2 1 1
0 2 2 1
0 2 3 1
0 2 4 1
0 2 5 1
1 3 0 1
1 3 1 1
1 3 2 1
1 3 3 1
1 3 4 1
1 3 5 1
1 4 0 1
1 4 1 1
1 4 2 1
1 4 3 1
1 4 4 1
1 4 5 1
2 4 0 1
2 4 1 1
2 4 2 1
2 4 3 1
2 4 4 1
2 4 5 1
3 4 0 1
3 4 1 1
3 4 2 1
3 4 3 1
3 4 4 1
3 4 5 1
3 5 0 1
3 5 1 1
3 5 2 1
3 5 3 1
3 5 4 1
3 5 5 1
4 5 0 1
4 5 1 1
4 5 2 1
4 5 3 1
4 5 4 1
4 5 5 1
1 0 0 1
1 0 1 1
1 0 2 1
1 0 3 1
1 0 4 1
1 0 5 1
2 0 0 1
2 0 1 1
2 0 2 1
2 0 3 1
2 0 4 1
2 0 5 1
3 1 0 1
3 1 1 1
3 1 2 1
3 1 3 1
3 1 4 1
3 1 5 1
4 1 0 1
4 1 1 1
4 1 2 1
4 1 3 1
4 1 4 1
4 1 5 1
4 2 0 1
4 2 1 1
4 2 2 1
4 2 3 1
4 2 4 1
4 2 5 1
4 3 0 1
4 3 1 1
4 3 2 1
4 3 3 1
4 3 4 1
4 3 5 1
5 3 0 1
5 3 1 1
5 3 2 1
5 3 3 1
5 3 4 1
5 3 5 1
5 4 0 1
5 4 1 1
5 4 2 1
5 4 3 1
5 4 4 1
5 4 5 1
;
param d:=
0 1 90.0
0 2 100.0
1 3 150.0
1 4 240.0
2 4 50.0
3 4 180.0
3 5 54.0
4 5 20.0
1 0 90.0
2 0 100.0
3 1 150.0
4 1 240.0
4 2 50.0
4 3 180.0
5 3 54.0
5 4 20.0
;
param dis:=
1 3000
2 1500
3 750
4 375
6 94
8 24
;
param R:=100000000;
param G:=1;
